40
231
4
44
43
54
83
0 2
0 3
0 7
0 17
0 20
0 29
0 33
1 2
1 3
1 4
1 5
1 6
1 8
1 12
1 16
1 20
1 21
1 23
1 24
1 29
1 30
1 31
1 33
1 34
1 35
1 36
1 39
2 3
2 23
2 30
2 35
2 37
2 39
3 6
3 14
3 19
3 21
3 23
3 27
3 32
4 10
4 18
4 23
4 24
4 26
4 32
4 35
4 38
4 39
5 7
5 10
5 11
5 16
5 22
5 23
5 24
5 27
5 29
5 35
5 36
6 9
6 15
6 16
6 18
6 19
6 22
6 23
6 24
6 26
6 31
6 32
6 33
6 39
7 9
7 11
7 14
7 16
7 17
7 18
7 24
7 30
7 37
8 11
8 15
8 17
8 18
8 21
8 30
8 33
8 34
8 35
8 38
9 13
9 16
9 17
9 18
9 23
9 25
10 11
10 12
10 15
10 18
10 19
10 20
10 21
10 23
10 24
10 28
10 30
10 37
10 39
11 15
11 16
11 24
11 27
11 28
11 29
11 31
11 33
12 20
12 23
12 24
12 27
12 29
12 33
12 34
13 14
13 21
13 25
13 26
13 27
13 28
13 32
13 35
13 39
14 15
14 18
14 22
14 26
14 27
14 28
14 29
14 38
14 39
15 21
15 22
15 27
15 30
15 31
15 33
15 34
15 35
16 29
16 30
16 32
17 19
17 20
17 21
17 25
17 26
17 27
17 29
17 30
17 31
17 38
18 20
18 22
18 25
18 26
18 38
18 39
19 23
19 24
19 26
19 28
19 32
19 33
19 34
19 35
20 28
20 30
20 37
20 38
21 26
21 29
21 30
21 34
21 39
22 29
22 32
22 33
22 36
23 24
23 27
23 30
23 32
23 35
23 38
24 26
24 30
24 32
24 34
24 36
25 27
25 29
25 34
26 29
26 31
26 32
26 34
26 35
26 39
27 30
27 36
27 37
28 30
28 32
28 34
28 35
28 36
28 39
29 33
29 38
29 39
30 34
31 36
31 37
32 33
34 35
37 38
37 39
15 1 18 25 32 22 24 6 19 35 34 27
26 3 17 38 33 31 29 28 16 8 10 9
7 12 37 39 2 0 23 4 30 11 13 5
36 21 14 20
